20J7M/DAT/20J7MNNL-17.dat
20 7
28.0789 28.0789
15.5421 15.5421
21.1338 21.1338
17.5165 17.5165
20.8427 20.8427
25.0429 25.0429
20.2331 20.2331
27.7098 27.7098
32.7354 32.7354
29.7367 29.7367
16.798 16.798
32.5711 32.5711
24.7166 24.7166
20.8198 20.8198
20.3349 20.3349
25.0047 25.0047
18.8591 18.8591
24.4191 24.4191
27.3479 27.3479
21.2098 21.2098
470.6529