20J7M/SOL/20J7MNNL-17.sol
solution status: optimal solution found
objective value:                     67.2361285714286
x#1#3                                               1 	(obj:0)
x#2#4                                               1 	(obj:0)
x#3#5                                               1 	(obj:0)
x#4#4                                               1 	(obj:0)
x#5#5                                               1 	(obj:0)
x#6#2                               0.653688556151929 	(obj:0)
x#6#6                               0.346311443848071 	(obj:0)
x#7#1                               0.141034810709749 	(obj:0)
x#7#4                               0.858965189290251 	(obj:0)
x#8#7                                               1 	(obj:0)
x#9#3                                               1 	(obj:0)
x#10#1                              0.283104235314804 	(obj:0)
x#10#6                              0.307353731728326 	(obj:0)
x#10#7                               0.40954203295687 	(obj:0)
x#11#4                                              1 	(obj:0)
x#12#2                              0.802836607562269 	(obj:0)
x#12#3                              0.197163392437731 	(obj:0)
x#13#2                                              1 	(obj:0)
x#14#1                                              1 	(obj:0)
x#15#1                                              1 	(obj:0)
x#16#6                                              1 	(obj:0)
x#17#5                                              1 	(obj:0)
x#18#6                                              1 	(obj:0)
x#19#7                                              1 	(obj:0)
x#20#1                              0.698227773414715 	(obj:0)
x#20#5                              0.301772226585285 	(obj:0)
z                                    67.2361285714286 	(obj:1)
